3	25
69	601	138	366	705	260	970	542	839	636	111	527	138	335	968	113	764	312	99	963	303	901	737	279	57	
608	14	490	532	382	897	315	790	461	250	470	480	210	448	752	186	602	518	287	713	860	97	693	458	325	
987	987	987	
